33D32945 STP File, STP Format Version 1.0

SECTION Comments
Name "cube_n10_d3_s43"
Problem "Euclidean Steiner Tree Problem"
Remark "Generated with STPGenerator. 3 dimensions."
END

SECTION Graph
Nodes 10
END

SECTION Coordinates
DDD 0 0.3921490034 0.2415533509 0.4918181642
DDD 1 0.7429387396 0.1386943274 0.9690520419
DDD 2 0.4979442570 0.1569527281 0.6047278813
DDD 3 0.6099463206 0.8727000411 0.9242446869
DDD 4 0.7194525505 0.1857139022 0.0945956191
DDD 5 0.7204462847 0.7615132685 0.3106321545
DDD 6 0.2578007133 0.9034257293 0.0485690669
DDD 7 0.5226562896 0.1556680115 0.8831310002
DDD 8 0.3024737403 0.0332014114 0.4304443828
DDD 9 0.8226312044 0.8875873521 0.8883300344
END
